set VV := 0 1 2 3 4 5 6 7 8 9 10 11 12 13 14 15 16 17 18 19 20 21 22 ;
set VS := 0 1 2 3 4 5 6 7 8 9 10 11 12 13 14 15 16 17 18 19 20 21 22 23 24 25 26 27 28 29 30 31 32 33 34 35 36 37 38 39 40 41 42 43 44 45 46 47 48 49 50 ;
param cv := 
0 20
1 18
2 16
3 20
4 20
5 22
6 19
7 24
8 14
9 10
10 11
11 11
12 13
13 22
14 10
15 15
16 24
17 13
18 13
19 19
20 13
21 16
22 16
;
param cs := 
0 31
1 36
2 35
3 31
4 30
5 25
6 33
7 30
8 28
9 37
10 22
11 39
12 30
13 22
14 29
15 27
16 23
17 27
18 32
19 37
20 21
21 33
22 21
23 33
24 25
25 37
26 31
27 23
28 40
29 23
30 31
31 31
32 22
33 20
34 21
35 22
36 38
37 31
38 22
39 35
40 36
41 31
42 23
43 40
44 29
45 34
46 31
47 33
48 24
49 25
50 21
;
param bv:	 0 1 2 3 4 5 6 7 8 9 10 11 12 13 14 15 16 17 18 19 20 21 22 := 
		0 0 12 0 0 10 21 0 10 0 0 0 0 0 0 17 0 0 0 0 0 0 23 0 
		1 0 0 0 0 0 0 0 0 0 0 0 0 0 0 19 24 0 0 0 0 16 20 0 
		2 0 0 0 0 0 0 0 0 0 0 0 0 0 15 0 0 0 0 0 0 0 0 0 
		3 0 0 0 0 0 0 0 25 0 0 0 0 0 0 0 0 0 0 0 0 0 0 22 
		4 0 0 0 0 0 0 0 0 0 17 0 20 0 0 0 0 0 23 0 0 0 0 0 
		5 0 0 0 0 0 0 0 0 0 0 0 0 0 0 0 0 0 0 0 0 0 0 0 
		6 0 0 0 0 0 0 0 0 11 0 24 0 0 0 0 0 0 0 0 0 0 0 0 
		7 0 0 0 0 0 0 0 0 0 0 0 0 0 0 16 0 10 0 0 13 0 0 0 
		8 0 0 0 0 0 0 0 0 0 0 0 0 0 0 0 0 0 21 16 0 0 0 0 
		9 0 0 0 0 0 0 0 0 0 0 0 0 0 12 18 0 0 0 0 0 0 0 0 
		10 0 0 0 0 0 0 0 0 0 0 0 0 0 0 0 0 0 0 0 0 0 0 0 
		11 0 0 0 0 0 0 0 0 0 0 0 0 0 0 0 0 12 0 0 0 0 0 0 
		12 0 0 0 0 0 0 0 0 0 0 0 0 0 0 0 18 0 0 0 0 0 0 0 
		13 0 0 0 0 0 0 0 0 0 0 0 0 0 0 0 0 0 0 0 0 0 0 0 
		14 0 0 0 0 0 0 0 0 0 0 0 0 0 0 0 0 0 0 0 0 0 0 0 
		15 0 0 0 0 0 0 0 0 0 0 0 0 0 0 0 0 0 0 0 0 0 0 0 
		16 0 0 0 0 0 0 0 0 0 0 0 0 0 0 0 0 0 0 0 0 0 0 0 
		17 0 0 0 0 0 0 0 0 0 0 0 0 0 0 0 0 0 0 0 0 0 0 0 
		18 0 0 0 0 0 0 0 0 0 0 0 0 0 0 0 0 0 0 0 16 0 0 0 
		19 0 0 0 0 0 0 0 0 0 0 0 0 0 0 0 0 0 0 0 0 0 0 0 
		20 0 0 0 0 0 0 0 0 0 0 0 0 0 0 0 0 0 0 0 0 0 0 0 
		21 0 0 0 0 0 0 0 0 0 0 0 0 0 0 0 0 0 0 0 0 0 0 0 
		22 0 0 0 0 0 0 0 0 0 0 0 0 0 0 0 0 0 0 0 0 0 0 0 
;
param bs:	 0 1 2 3 4 5 6 7 8 9 10 11 12 13 14 15 16 17 18 19 20 21 22 23 24 25 26 27 28 29 30 31 32 33 34 35 36 37 38 39 40 41 42 43 44 45 46 47 48 49 50 := 
		0 0 23 0 0 0 20 0 0 36 0 0 36 0 0 0 0 21 0 30 0 0 0 0 0 0 0 0 0 20 0 21 0 0 0 0 31 0 0 0 0 0 0 0 0 0 32 0 0 37 0 0 
		1 23 0 0 0 0 0 0 0 0 0 0 0 0 35 0 0 0 0 0 0 0 0 0 0 0 0 0 40 0 0 0 0 0 0 0 0 0 0 29 0 0 0 0 0 0 0 0 0 0 0 0 
		2 0 0 0 0 0 0 0 24 0 28 0 0 0 0 0 0 0 0 0 0 40 0 30 0 0 0 0 0 0 0 0 0 0 0 0 0 37 0 31 0 0 0 0 21 0 0 0 0 0 30 0 
		3 0 0 0 0 28 0 0 0 0 0 0 0 39 0 0 0 36 0 0 0 0 0 0 0 0 0 0 0 0 0 0 0 0 0 0 0 0 0 0 25 0 27 0 0 0 0 0 0 0 0 0 
		4 0 0 0 28 0 0 0 0 0 0 0 0 0 0 0 0 0 0 0 0 39 0 0 0 0 0 0 0 0 0 0 0 26 0 0 0 0 0 0 0 0 39 0 0 0 36 0 0 0 0 0 
		5 20 0 0 0 0 0 37 0 0 26 0 0 0 0 0 0 0 29 24 0 0 0 0 31 0 0 0 0 0 0 0 0 0 29 0 37 36 0 0 0 0 0 0 0 0 0 0 0 0 0 0 
		6 0 0 0 0 0 37 0 0 0 0 0 0 0 25 34 0 0 0 0 0 0 23 0 0 0 0 0 0 0 40 0 0 20 0 0 0 0 0 0 0 0 0 0 0 0 0 0 0 0 0 0 
		7 0 0 24 0 0 0 0 0 0 0 0 0 0 0 0 0 0 0 0 0 0 0 0 0 0 0 0 0 0 0 29 0 0 0 0 0 0 0 0 0 0 0 0 0 0 0 28 0 0 27 0 
		8 36 0 0 0 0 0 0 0 0 0 0 0 0 22 0 0 40 0 0 0 0 0 0 0 0 0 0 0 0 0 0 0 29 0 0 0 0 0 0 0 0 0 0 0 0 0 0 0 0 0 32 
		9 0 0 28 0 0 26 0 0 0 0 35 0 0 26 0 0 0 26 23 0 0 33 0 0 0 0 0 0 0 0 0 0 0 0 0 0 0 0 38 0 0 0 0 0 0 0 0 0 0 0 0 
		10 0 0 0 0 0 0 0 0 0 35 0 0 0 0 0 0 0 0 0 0 0 0 32 0 0 0 0 0 0 0 0 0 0 0 0 0 0 0 0 0 0 40 0 0 0 0 0 29 0 0 0 
		11 36 0 0 0 0 0 0 0 0 0 0 0 0 0 0 40 0 0 0 0 0 0 0 0 0 0 0 0 0 0 0 0 0 0 22 21 0 36 0 0 0 0 0 0 0 0 0 0 0 0 0 
		12 0 0 0 39 0 0 0 0 0 0 0 0 0 0 0 0 0 0 0 0 0 0 0 0 0 0 32 36 0 0 0 0 0 0 0 35 0 0 0 0 0 0 24 0 0 0 23 0 22 32 0 
		13 0 35 0 0 0 0 25 0 22 26 0 0 0 0 0 0 0 0 0 0 0 0 20 0 32 0 0 0 0 0 0 0 0 0 0 28 0 0 0 0 0 0 27 0 0 0 0 0 0 0 0 
		14 0 0 0 0 0 0 34 0 0 0 0 0 0 0 0 0 0 0 0 38 0 27 0 0 0 0 0 0 0 0 0 0 25 0 0 36 0 0 0 0 0 0 0 0 0 0 0 20 0 0 0 
		15 0 0 0 0 0 0 0 0 0 0 0 40 0 0 0 0 23 0 0 0 0 37 32 0 0 0 0 0 0 0 0 0 0 0 24 0 0 0 0 24 0 0 0 0 0 0 0 0 0 35 0 
		16 21 0 0 36 0 0 0 0 40 0 0 0 0 0 0 23 0 0 0 0 0 0 0 32 0 0 0 0 0 0 0 0 24 0 25 0 0 0 0 0 0 0 0 0 0 0 0 29 0 0 0 
		17 0 0 0 0 0 29 0 0 0 26 0 0 0 0 0 0 0 0 26 0 0 0 0 27 0 0 0 0 0 0 0 0 0 0 0 0 0 0 0 0 0 0 0 0 0 0 0 0 0 0 0 
		18 30 0 0 0 0 24 0 0 0 23 0 0 0 0 0 0 0 26 0 0 0 0 0 0 0 0 0 0 0 0 0 0 0 30 0 0 0 0 32 0 0 0 0 0 0 0 0 0 0 0 0 
		19 0 0 0 0 0 0 0 0 0 0 0 0 0 0 38 0 0 0 0 0 0 0 31 0 0 0 0 0 0 0 0 0 0 22 0 0 0 0 0 25 0 0 0 0 0 0 0 0 0 0 0 
		20 0 0 40 0 39 0 0 0 0 0 0 0 0 0 0 0 0 0 0 0 0 0 0 0 21 0 39 0 0 0 0 39 0 0 0 39 0 0 21 36 0 0 0 0 0 0 0 0 0 26 22 
		21 0 0 0 0 0 0 23 0 0 33 0 0 0 0 27 37 0 0 0 0 0 0 26 37 29 0 0 0 0 0 0 21 0 0 0 0 0 0 0 0 0 0 0 0 36 0 0 0 0 0 0 
		22 0 0 30 0 0 0 0 0 0 0 32 0 0 20 0 32 0 0 0 31 0 26 0 0 0 0 29 0 0 0 0 27 0 0 27 0 0 0 0 0 0 0 0 0 0 38 0 0 0 0 0 
		23 0 0 0 0 0 31 0 0 0 0 0 0 0 0 0 0 32 27 0 0 0 37 0 0 0 0 0 0 0 0 0 0 0 0 0 0 0 0 0 0 0 0 0 26 0 0 0 0 0 0 0 
		24 0 0 0 0 0 0 0 0 0 0 0 0 0 32 0 0 0 0 0 0 21 29 0 0 0 0 0 0 0 0 0 35 0 0 0 0 0 0 0 28 0 21 0 0 0 0 0 0 0 0 39 
		25 0 0 0 0 0 0 0 0 0 0 0 0 0 0 0 0 0 0 0 0 0 0 0 0 0 0 0 0 0 38 0 0 0 0 0 0 0 0 0 0 0 0 0 0 0 0 0 0 0 29 0 
		26 0 0 0 0 0 0 0 0 0 0 0 0 32 0 0 0 0 0 0 0 39 0 29 0 0 0 0 0 0 0 0 0 0 0 0 0 29 0 0 0 0 0 0 0 0 0 0 0 0 38 0 
		27 0 40 0 0 0 0 0 0 0 0 0 0 36 0 0 0 0 0 0 0 0 0 0 0 0 0 0 0 0 0 0 0 29 0 0 0 0 0 0 29 26 0 0 0 0 24 0 0 0 0 0 
		28 20 0 0 0 0 0 0 0 0 0 0 0 0 0 0 0 0 0 0 0 0 0 0 0 0 0 0 0 0 0 25 0 0 0 0 31 0 0 0 0 0 0 27 0 0 0 0 0 0 23 20 
		29 0 0 0 0 0 0 40 0 0 0 0 0 0 0 0 0 0 0 0 0 0 0 0 0 0 38 0 0 0 0 0 0 0 0 0 0 0 0 0 0 33 0 0 0 0 0 0 0 0 21 0 
		30 21 0 0 0 0 0 0 29 0 0 0 0 0 0 0 0 0 0 0 0 0 0 0 0 0 0 0 0 25 0 0 0 0 0 0 0 0 0 28 0 0 0 0 0 0 0 0 0 0 20 0 
		31 0 0 0 0 0 0 0 0 0 0 0 0 0 0 0 0 0 0 0 0 39 21 27 0 35 0 0 0 0 0 0 0 20 20 0 40 0 0 0 0 0 0 0 0 0 0 0 0 0 0 0 
		32 0 0 0 0 26 0 20 0 29 0 0 0 0 0 25 0 24 0 0 0 0 0 0 0 0 0 0 29 0 0 0 20 0 0 0 0 0 0 0 0 0 0 36 0 0 0 0 0 0 0 0 
		33 0 0 0 0 0 29 0 0 0 0 0 0 0 0 0 0 0 0 30 22 0 0 0 0 0 0 0 0 0 0 0 20 0 0 0 0 0 0 0 0 0 0 0 0 0 0 0 0 0 0 0 
		34 0 0 0 0 0 0 0 0 0 0 0 22 0 0 0 24 25 0 0 0 0 0 27 0 0 0 0 0 0 0 0 0 0 0 0 0 0 0 0 0 0 0 0 21 0 0 0 0 0 0 0 
		35 31 0 0 0 0 37 0 0 0 0 0 21 35 28 36 0 0 0 0 0 39 0 0 0 0 0 0 0 31 0 0 40 0 0 0 0 0 0 0 0 0 0 0 0 0 0 0 0 0 0 0 
		36 0 0 37 0 0 36 0 0 0 0 0 0 0 0 0 0 0 0 0 0 0 0 0 0 0 0 29 0 0 0 0 0 0 0 0 0 0 0 0 0 20 0 0 0 0 0 26 0 0 28 0 
		37 0 0 0 0 0 0 0 0 0 0 0 36 0 0 0 0 0 0 0 0 0 0 0 0 0 0 0 0 0 0 0 0 0 0 0 0 0 0 0 0 0 0 0 0 0 0 0 0 0 0 0 
		38 0 29 31 0 0 0 0 0 0 38 0 0 0 0 0 0 0 0 32 0 21 0 0 0 0 0 0 0 0 0 28 0 0 0 0 0 0 0 0 0 0 0 0 0 0 0 25 0 0 0 0 
		39 0 0 0 25 0 0 0 0 0 0 0 0 0 0 0 24 0 0 0 25 36 0 0 0 28 0 0 29 0 0 0 0 0 0 0 0 0 0 0 0 0 0 0 0 0 29 0 0 0 0 0 
		40 0 0 0 0 0 0 0 0 0 0 0 0 0 0 0 0 0 0 0 0 0 0 0 0 0 0 0 26 0 33 0 0 0 0 0 0 20 0 0 0 0 0 0 0 0 0 0 0 0 0 0 
		41 0 0 0 27 39 0 0 0 0 0 40 0 0 0 0 0 0 0 0 0 0 0 0 0 21 0 0 0 0 0 0 0 0 0 0 0 0 0 0 0 0 0 38 20 0 0 0 0 0 0 0 
		42 0 0 0 0 0 0 0 0 0 0 0 0 24 27 0 0 0 0 0 0 0 0 0 0 0 0 0 0 27 0 0 0 36 0 0 0 0 0 0 0 0 38 0 0 0 0 31 0 21 0 0 
		43 0 0 21 0 0 0 0 0 0 0 0 0 0 0 0 0 0 0 0 0 0 0 0 26 0 0 0 0 0 0 0 0 0 0 21 0 0 0 0 0 0 20 0 0 0 0 0 0 0 0 0 
		44 0 0 0 0 0 0 0 0 0 0 0 0 0 0 0 0 0 0 0 0 0 36 0 0 0 0 0 0 0 0 0 0 0 0 0 0 0 0 0 0 0 0 0 0 0 0 0 0 0 0 36 
		45 32 0 0 0 36 0 0 0 0 0 0 0 0 0 0 0 0 0 0 0 0 0 38 0 0 0 0 24 0 0 0 0 0 0 0 0 0 0 0 29 0 0 0 0 0 0 0 0 0 0 0 
		46 0 0 0 0 0 0 0 28 0 0 0 0 23 0 0 0 0 0 0 0 0 0 0 0 0 0 0 0 0 0 0 0 0 0 0 0 26 0 25 0 0 0 31 0 0 0 0 0 0 0 0 
		47 0 0 0 0 0 0 0 0 0 0 29 0 0 0 20 0 29 0 0 0 0 0 0 0 0 0 0 0 0 0 0 0 0 0 0 0 0 0 0 0 0 0 0 0 0 0 0 0 0 0 0 
		48 37 0 0 0 0 0 0 0 0 0 0 0 22 0 0 0 0 0 0 0 0 0 0 0 0 0 0 0 0 0 0 0 0 0 0 0 0 0 0 0 0 0 21 0 0 0 0 0 0 0 0 
		49 0 0 30 0 0 0 0 27 0 0 0 0 32 0 0 35 0 0 0 0 26 0 0 0 0 29 38 0 23 21 20 0 0 0 0 0 28 0 0 0 0 0 0 0 0 0 0 0 0 0 0 
		50 0 0 0 0 0 0 0 0 32 0 0 0 0 0 0 0 0 0 0 0 22 0 0 0 39 0 0 0 20 0 0 0 0 0 0 0 0 0 0 0 0 0 0 0 36 0 0 0 0 0 0 
;
